p cnf 13 30
-1 -12 -3 0
10 6 1 0
8 -10 10 0
-8 -12 4 0
-5 -12 10 0
-10 -3 10 0
-8 2 -2 0
7 -6 -5 0
-10 4 11 0
12 -12 3 0
-4 -8 -9 0
7 9 -12 0
-1 -2 -3 -4 -5 -6 -7 -8 -9 -10 -11 -12 -13 0
-8 11 12 0
8 8 8 0
3 -9 -4 0
12 5 13 0
7 -8 -8 0
-7 9 -6 0
11 -1 9 0
3 11 -12 0
-2 -1 -7 0
11 -8 -13 0
2 -13 -6 0
11 11 -5 0
8 -12 11 0
1 2 3 4 5 6 7 8 9 10 11 12 13 0
-13 6 10 0
-11 -2 9 0
3 9 1 0
